sat
(:eliminated-applications 240
 :eliminated-vars         2032
 :max-memory              39.72
 :memory                  31.76
 :nlsat-conflicts         14247
 :nlsat-decisions         35398
 :nlsat-propagations      281196
 :nlsat-stages            65236
 :num-allocs              90520398
 :rlimit-count            15103824
 :time                    3.41
 :total-time              3.48)
